(declare-const X String)
; [0-9]{1,3}\.[0-9]{1,3}\.[0-9]{1,3}\.[0-9]{1,3}
(assert (not (str.in.re X (re.++ ((_ re.loop 1 3) (re.range "0" "9")) (str.to.re ".") ((_ re.loop 1 3) (re.range "0" "9")) (str.to.re ".") ((_ re.loop 1 3) (re.range "0" "9")) (str.to.re ".") ((_ re.loop 1 3) (re.range "0" "9")) (str.to.re "\x0a")))))
; X-Mailer\x3aUser-Agent\x3A
(assert (not (str.in.re X (str.to.re "X-Mailer:\x13User-Agent:\x0a"))))
; HWAE[^\n\r]*Email[^\n\r]*User-Agent\x3AUser-Agent\x3awowokayHost\x3A
(assert (str.in.re X (re.++ (str.to.re "HWAE") (re.* (re.union (str.to.re "\x0a") (str.to.re "\x0d"))) (str.to.re "Email") (re.* (re.union (str.to.re "\x0a") (str.to.re "\x0d"))) (str.to.re "User-Agent:User-Agent:wowokayHost:\x0a"))))
(check-sat)
